param n := 20
;

param delta := 1.5
;

param coordX [*] :=
 0  8    3  6    6  6    9  4   12 10   15 17   18  8
 1  1    4  8    7  9   10  9   13 12   16 13   19 18
 2 17    5  7    8  6   11 13   14 10   17  6   20 16
;

param coordY [*] :=
 0  4    3  6    6  2    9  3   12  9   15  9   18  7
 1 16    4 17    7 17   10  2   13 13   16 17   19  9
 2 11    5 14    8  1   11 13   14 11   17  9   20 11
;